NAME /Users/henri/Research/solvers/instances/idol-instances/robust/collection/cbp_Subramanyam_et_al_2020/CapBud_N15_11/models/uncertain_technology_matrix/
ROWS
 N  OBJ
 L  capacity
 L  c_1685
 L  c_1686
 L  c_1687
 L  c_1688
 L  c_1689
 L  c_1690
 L  c_1691
 L  c_1692
 L  c_1693
 L  c_1694
 L  c_1695
 L  c_1696
 L  c_1697
 L  c_1698
 L  c_1699
COLUMNS
    MARKER    'MARKER'                 'INTORG'
    x_0        OBJ        -3.73095
    x_0        c_1685     1
    x_0        capacity   0.74619
    x_1        OBJ        -5.64067
    x_1        c_1686     1
    x_1        capacity   1.12813
    x_2        OBJ        -8.98365
    x_2        c_1687     1
    x_2        capacity   1.79673
    x_3        OBJ        -4.49365
    x_3        c_1688     1
    x_3        capacity   0.898731
    x_4        OBJ        -2.27452
    x_4        c_1689     1
    x_4        capacity   0.454904
    x_5        OBJ        -3.5874
    x_5        c_1690     1
    x_5        capacity   0.71748
    x_6        OBJ        -4.45732
    x_6        c_1691     1
    x_6        capacity   0.891464
    x_7        OBJ        -4.54934
    x_7        c_1692     1
    x_7        capacity   0.909867
    x_8        OBJ        -3.37833
    x_8        c_1693     1
    x_8        capacity   0.675666
    x_9        OBJ        -4.62647
    x_9        c_1694     1
    x_9        capacity   0.925293
    x_10       OBJ        -3.4652
    x_10       c_1695     1
    x_10       capacity   0.693039
    x_11       OBJ        -3.00584
    x_11       c_1696     1
    x_11       capacity   0.601169
    x_12       OBJ        -8.61235
    x_12       c_1697     1
    x_12       capacity   1.72247
    x_13       OBJ        -8.45164
    x_13       c_1698     1
    x_13       capacity   1.69033
    x_14       OBJ        -2.84019
    x_14       c_1699     1
    x_14       capacity   0.568038
    y_0        OBJ        -2.98476
    y_0        c_1685     1
    y_0        capacity   0.74619
    y_1        OBJ        -4.51254
    y_1        c_1686     1
    y_1        capacity   1.12813
    y_2        OBJ        -7.18692
    y_2        c_1687     1
    y_2        capacity   1.79673
    y_3        OBJ        -3.59492
    y_3        c_1688     1
    y_3        capacity   0.898731
    y_4        OBJ        -1.81962
    y_4        c_1689     1
    y_4        capacity   0.454904
    y_5        OBJ        -2.86992
    y_5        c_1690     1
    y_5        capacity   0.71748
    y_6        OBJ        -3.56585
    y_6        c_1691     1
    y_6        capacity   0.891464
    y_7        OBJ        -3.63947
    y_7        c_1692     1
    y_7        capacity   0.909867
    y_8        OBJ        -2.70266
    y_8        c_1693     1
    y_8        capacity   0.675666
    y_9        OBJ        -3.70117
    y_9        c_1694     1
    y_9        capacity   0.925293
    y_10       OBJ        -2.77216
    y_10       c_1695     1
    y_10       capacity   0.693039
    y_11       OBJ        -2.40468
    y_11       c_1696     1
    y_11       capacity   0.601169
    y_12       OBJ        -6.88988
    y_12       c_1697     1
    y_12       capacity   1.72247
    y_13       OBJ        -6.76131
    y_13       c_1698     1
    y_13       capacity   1.69033
    y_14       OBJ        -2.27215
    y_14       c_1699     1
    y_14       capacity   0.568038
    MARKER    'MARKER'                 'INTEND'
RHS
    RHS       capacity   36.0488
    RHS       c_1685     1
    RHS       c_1686     1
    RHS       c_1687     1
    RHS       c_1688     1
    RHS       c_1689     1
    RHS       c_1690     1
    RHS       c_1691     1
    RHS       c_1692     1
    RHS       c_1693     1
    RHS       c_1694     1
    RHS       c_1695     1
    RHS       c_1696     1
    RHS       c_1697     1
    RHS       c_1698     1
    RHS       c_1699     1
BOUNDS
 LI BND       x_0        0
 UI BND       x_0        1
 LI BND       x_1        0
 UI BND       x_1        1
 LI BND       x_2        0
 UI BND       x_2        1
 LI BND       x_3        0
 UI BND       x_3        1
 LI BND       x_4        0
 UI BND       x_4        1
 LI BND       x_5        0
 UI BND       x_5        1
 LI BND       x_6        0
 UI BND       x_6        1
 LI BND       x_7        0
 UI BND       x_7        1
 LI BND       x_8        0
 UI BND       x_8        1
 LI BND       x_9        0
 UI BND       x_9        1
 LI BND       x_10       0
 UI BND       x_10       1
 LI BND       x_11       0
 UI BND       x_11       1
 LI BND       x_12       0
 UI BND       x_12       1
 LI BND       x_13       0
 UI BND       x_13       1
 LI BND       x_14       0
 UI BND       x_14       1
 LI BND       y_0        0
 UI BND       y_0        1
 LI BND       y_1        0
 UI BND       y_1        1
 LI BND       y_2        0
 UI BND       y_2        1
 LI BND       y_3        0
 UI BND       y_3        1
 LI BND       y_4        0
 UI BND       y_4        1
 LI BND       y_5        0
 UI BND       y_5        1
 LI BND       y_6        0
 UI BND       y_6        1
 LI BND       y_7        0
 UI BND       y_7        1
 LI BND       y_8        0
 UI BND       y_8        1
 LI BND       y_9        0
 UI BND       y_9        1
 LI BND       y_10       0
 UI BND       y_10       1
 LI BND       y_11       0
 UI BND       y_11       1
 LI BND       y_12       0
 UI BND       y_12       1
 LI BND       y_13       0
 UI BND       y_13       1
 LI BND       y_14       0
 UI BND       y_14       1
ENDATA
